num_features = 32;
num_usage_limits = 0;
num_plans = 3;
num_addons = 0;

features = ["versionHistory", "figmaEditor", "advancedDrawingTools", "autoLayout", "styles", "plugins", "fileStorage", "crossPlatform", "sketchImport", "interactivePrototypes", "overlays", "transitions", "advancedAnimations", "developerHandoff", "pdfPngJpgSvgExport", "multiplayer", "shareableLinks", "onCanvasCommenting", "observationMode", "privateProjects", "prototypeSharingPermissions", "audioConversations", "teams", "branchingAndMerging", "components", "teamLibraries", "organizationWideDesignSystems", "sharedFonts", "designSystemAnalytics", "restApis", "thirdPartyIntegrations", "liveEmbeds", "privatePlugins", "pluginManagement", "centralizedAdministration", "domainCapture", "linkAccessControls", "centralizedContentManagent", "singleSignOn", "activityLogs"];
usage_limits = [];
plans = ["STARTER", "PROFESSIONAL", "ORGANIZATION"];
addons = [];

plans_prices = [0.0,12.0,45.0];
addons_prices = [];

plans_features = array2d(PLANS, FEATURES, [
    % STARTER
    1,1,1,1,1,1,1,1,1,1,1,1,1,1,1,1,1,1,1,0,0,0,0,0,1,0,0,0,0,0,1,1,1,0,0,0,0,0,0,0,0,1,0,
    % PROFESSIONAL
    1,1,1,1,1,1,1,1,1,1,1,1,1,1,1,1,1,1,1,1,1,1,0,0,1,1,0,0,0,0,1,1,1,0,0,0,0,0,0,0,0,1,0,
    % ORGANIZATION
    1,1,1,1,1,1,1,1,1,1,1,1,1,1,1,1,1,1,1,1,1,1,1,1,1,1,1,1,1,1,1,1,1,1,1,1,1,1,1,1,1,1,1
]);
plans_usage_limits = array2d(PLANS, USAGE_LIMITS, [
    % STARTER
    ,
    % PROFESSIONAL
    ,
    % ORGANIZATION
    ,
]);

linked_features = array2d(USAGE_LIMITS, FEATURES, [
    % 
    ,
    % 
    ,
]);

addons_features = array2d(ADDONS, FEATURES, [
    % 
    ,
    % 
    ,
]);
addons_usage_limits = array2d(ADDONS, USAGE_LIMITS, [
    % 
    ,
    % 
    ,
]);
addons_usage_limits_extensions = array2d(ADDONS, USAGE_LIMITS, [
    % 
    ,
    % 
    ,
]);
addons_available_for = array2d(ADDONS, PLANS, [
    % 
    ,
    % 
    ,
]);

addons_depends_on = array2d(ADDONS, ADDONS, [
    % 
    ,
    % 
    ,
]);